p cnf 200 1110
-101 80 0
-101 4 0
-101 21 0
-101 15 0
-101 -83 0
-101 -10 0
-101 86 0
-101 -27 0
-101 79 0
-101 98 0
101 -80 -4 -21 -15 83 10 -86 27 -79 -98 0
-102 -85 0
-102 -4 0
-102 -31 0
-102 -84 0
-102 14 0
-102 -33 0
-102 -57 0
-102 -8 0
-102 91 0
-102 81 0
102 85 4 31 84 -14 33 57 8 -91 -81 0
-103 -70 0
-103 -45 0
-103 -46 0
-103 42 0
-103 -92 0
-103 -84 0
-103 -89 0
-103 -16 0
-103 31 0
-103 47 0
103 70 45 46 -42 92 84 89 16 -31 -47 0
-104 20 0
-104 44 0
-104 90 0
-104 -15 0
-104 87 0
-104 -75 0
-104 -21 0
-104 3 0
-104 25 0
-104 -62 0
104 -20 -44 -90 15 -87 75 21 -3 -25 62 0
-105 -2 0
-105 57 0
-105 -5 0
-105 65 0
-105 -21 0
-105 -22 0
-105 62 0
-105 86 0
-105 11 0
-105 -63 0
105 2 -57 5 -65 21 22 -62 -86 -11 63 0
-106 -68 0
-106 13 0
-106 -36 0
-106 96 0
-106 16 0
-106 23 0
-106 -70 0
-106 -53 0
-106 54 0
-106 -37 0
106 68 -13 36 -96 -16 -23 70 53 -54 37 0
-107 62 0
-107 -65 0
-107 21 0
-107 19 0
-107 86 0
-107 61 0
-107 -32 0
-107 -99 0
-107 -88 0
-107 -95 0
107 -62 65 -21 -19 -86 -61 32 99 88 95 0
-108 57 0
-108 37 0
-108 -43 0
-108 -41 0
-108 -22 0
-108 39 0
-108 -74 0
-108 -5 0
-108 -25 0
-108 -55 0
108 -57 -37 43 41 22 -39 74 5 25 55 0
-109 17 0
-109 -12 0
-109 -25 0
-109 98 0
-109 -80 0
-109 49 0
-109 -1 0
-109 -5 0
-109 85 0
-109 89 0
109 -17 12 25 -98 80 -49 1 5 -85 -89 0
-110 -2 0
-110 -43 0
-110 -52 0
-110 86 0
-110 46 0
-110 95 0
-110 64 0
-110 57 0
-110 65 0
-110 -32 0
110 2 43 52 -86 -46 -95 -64 -57 -65 32 0
101 102 103 104 105 106 107 108 109 110 0
-111 -3 0
-111 58 0
-111 -28 0
-111 57 0
-111 18 0
-111 -36 0
-111 -88 0
-111 92 0
-111 71 0
-111 86 0
111 3 -58 28 -57 -18 36 88 -92 -71 -86 0
-112 31 0
-112 -3 0
-112 99 0
-112 -72 0
-112 -48 0
-112 80 0
-112 30 0
-112 -86 0
-112 69 0
-112 34 0
112 -31 3 -99 72 48 -80 -30 86 -69 -34 0
-113 51 0
-113 79 0
-113 16 0
-113 -95 0
-113 -67 0
-113 -80 0
-113 -92 0
-113 -52 0
-113 -4 0
-113 32 0
113 -51 -79 -16 95 67 80 92 52 4 -32 0
-114 -43 0
-114 -5 0
-114 97 0
-114 -68 0
-114 -83 0
-114 12 0
-114 37 0
-114 -9 0
-114 23 0
-114 76 0
114 43 5 -97 68 83 -12 -37 9 -23 -76 0
-115 -13 0
-115 -6 0
-115 100 0
-115 79 0
-115 35 0
-115 37 0
-115 -58 0
-115 34 0
-115 19 0
-115 -43 0
115 13 6 -100 -79 -35 -37 58 -34 -19 43 0
-116 -55 0
-116 77 0
-116 -83 0
-116 -74 0
-116 -80 0
-116 26 0
-116 -68 0
-116 -100 0
-116 -9 0
-116 92 0
116 55 -77 83 74 80 -26 68 100 9 -92 0
-117 -41 0
-117 -95 0
-117 -11 0
-117 -86 0
-117 -48 0
-117 -28 0
-117 -24 0
-117 -75 0
-117 -2 0
-117 70 0
117 41 95 11 86 48 28 24 75 2 -70 0
-118 37 0
-118 56 0
-118 -97 0
-118 29 0
-118 -81 0
-118 -20 0
-118 -57 0
-118 21 0
-118 48 0
-118 -5 0
118 -37 -56 97 -29 81 20 57 -21 -48 5 0
-119 45 0
-119 14 0
-119 48 0
-119 -97 0
-119 -29 0
-119 -88 0
-119 4 0
-119 76 0
-119 63 0
-119 -54 0
119 -45 -14 -48 97 29 88 -4 -76 -63 54 0
-120 -93 0
-120 45 0
-120 20 0
-120 72 0
-120 39 0
-120 -23 0
-120 -90 0
-120 -30 0
-120 -22 0
-120 -71 0
120 93 -45 -20 -72 -39 23 90 30 22 71 0
111 112 113 114 115 116 117 118 119 120 0
-121 50 0
-121 5 0
-121 8 0
-121 11 0
-121 -16 0
-121 6 0
-121 96 0
-121 43 0
-121 46 0
-121 -76 0
121 -50 -5 -8 -11 16 -6 -96 -43 -46 76 0
-122 90 0
-122 57 0
-122 -18 0
-122 21 0
-122 -58 0
-122 -77 0
-122 -20 0
-122 35 0
-122 -53 0
-122 71 0
122 -90 -57 18 -21 58 77 20 -35 53 -71 0
-123 -98 0
-123 43 0
-123 58 0
-123 34 0
-123 33 0
-123 -84 0
-123 -79 0
-123 -48 0
-123 -51 0
-123 -55 0
123 98 -43 -58 -34 -33 84 79 48 51 55 0
-124 -43 0
-124 8 0
-124 -17 0
-124 -6 0
-124 67 0
-124 -14 0
-124 -11 0
-124 86 0
-124 -35 0
-124 -64 0
124 43 -8 17 6 -67 14 11 -86 35 64 0
-125 69 0
-125 -47 0
-125 51 0
-125 -9 0
-125 57 0
-125 80 0
-125 -16 0
-125 74 0
-125 96 0
-125 45 0
125 -69 47 -51 9 -57 -80 16 -74 -96 -45 0
-126 -97 0
-126 -89 0
-126 -20 0
-126 -43 0
-126 -5 0
-126 -78 0
-126 29 0
-126 44 0
-126 -21 0
-126 -46 0
126 97 89 20 43 5 78 -29 -44 21 46 0
-127 78 0
-127 13 0
-127 -48 0
-127 31 0
-127 -73 0
-127 61 0
-127 -85 0
-127 -15 0
-127 68 0
-127 81 0
127 -78 -13 48 -31 73 -61 85 15 -68 -81 0
-128 -5 0
-128 29 0
-128 9 0
-128 92 0
-128 -43 0
-128 25 0
-128 -19 0
-128 -26 0
-128 -53 0
-128 -93 0
128 5 -29 -9 -92 43 -25 19 26 53 93 0
-129 13 0
-129 -58 0
-129 42 0
-129 4 0
-129 -80 0
-129 -85 0
-129 39 0
-129 36 0
-129 -77 0
-129 82 0
129 -13 58 -42 -4 80 85 -39 -36 77 -82 0
-130 12 0
-130 -49 0
-130 26 0
-130 14 0
-130 17 0
-130 77 0
-130 76 0
-130 39 0
-130 15 0
-130 -24 0
130 -12 49 -26 -14 -17 -77 -76 -39 -15 24 0
121 122 123 124 125 126 127 128 129 130 0
-131 -50 0
-131 46 0
-131 -49 0
-131 33 0
-131 -29 0
-131 52 0
-131 64 0
-131 92 0
-131 -1 0
-131 -93 0
131 50 -46 49 -33 29 -52 -64 -92 1 93 0
-132 42 0
-132 46 0
-132 5 0
-132 82 0
-132 94 0
-132 -26 0
-132 -73 0
-132 29 0
-132 -69 0
-132 -35 0
132 -42 -46 -5 -82 -94 26 73 -29 69 35 0
-133 -32 0
-133 -3 0
-133 -82 0
-133 36 0
-133 57 0
-133 47 0
-133 -35 0
-133 -44 0
-133 -28 0
-133 -22 0
133 32 3 82 -36 -57 -47 35 44 28 22 0
-134 31 0
-134 -84 0
-134 -4 0
-134 15 0
-134 35 0
-134 30 0
-134 -92 0
-134 -10 0
-134 67 0
-134 46 0
134 -31 84 4 -15 -35 -30 92 10 -67 -46 0
-135 -84 0
-135 46 0
-135 25 0
-135 -72 0
-135 39 0
-135 16 0
-135 57 0
-135 91 0
-135 75 0
-135 -11 0
135 84 -46 -25 72 -39 -16 -57 -91 -75 11 0
-136 77 0
-136 86 0
-136 54 0
-136 80 0
-136 16 0
-136 -46 0
-136 93 0
-136 -69 0
-136 -63 0
-136 -28 0
136 -77 -86 -54 -80 -16 46 -93 69 63 28 0
-137 -61 0
-137 -44 0
-137 -30 0
-137 -34 0
-137 -35 0
-137 22 0
-137 37 0
-137 83 0
-137 17 0
-137 -90 0
137 61 44 30 34 35 -22 -37 -83 -17 90 0
-138 34 0
-138 33 0
-138 -9 0
-138 77 0
-138 -2 0
-138 -19 0
-138 -58 0
-138 -25 0
-138 -65 0
-138 49 0
138 -34 -33 9 -77 2 19 58 25 65 -49 0
-139 48 0
-139 -28 0
-139 81 0
-139 1 0
-139 2 0
-139 -87 0
-139 35 0
-139 41 0
-139 11 0
-139 -22 0
139 -48 28 -81 -1 -2 87 -35 -41 -11 22 0
-140 27 0
-140 46 0
-140 -7 0
-140 -48 0
-140 -93 0
-140 76 0
-140 -88 0
-140 8 0
-140 67 0
-140 -92 0
140 -27 -46 7 48 93 -76 88 -8 -67 92 0
131 132 133 134 135 136 137 138 139 140 0
-141 90 0
-141 -97 0
-141 28 0
-141 -25 0
-141 -30 0
-141 -33 0
-141 65 0
-141 66 0
-141 87 0
-141 -47 0
141 -90 97 -28 25 30 33 -65 -66 -87 47 0
-142 -5 0
-142 31 0
-142 69 0
-142 -30 0
-142 -57 0
-142 26 0
-142 -53 0
-142 45 0
-142 -72 0
-142 90 0
142 5 -31 -69 30 57 -26 53 -45 72 -90 0
-143 -1 0
-143 -34 0
-143 -79 0
-143 -70 0
-143 -7 0
-143 3 0
-143 71 0
-143 -45 0
-143 -38 0
-143 -49 0
143 1 34 79 70 7 -3 -71 45 38 49 0
-144 -91 0
-144 29 0
-144 -81 0
-144 -86 0
-144 52 0
-144 19 0
-144 -87 0
-144 -24 0
-144 11 0
-144 -62 0
144 91 -29 81 86 -52 -19 87 24 -11 62 0
-145 65 0
-145 -77 0
-145 19 0
-145 -5 0
-145 59 0
-145 -7 0
-145 37 0
-145 -15 0
-145 -32 0
-145 -40 0
145 -65 77 -19 5 -59 7 -37 15 32 40 0
-146 69 0
-146 -34 0
-146 37 0
-146 -36 0
-146 -85 0
-146 82 0
-146 59 0
-146 55 0
-146 46 0
-146 77 0
146 -69 34 -37 36 85 -82 -59 -55 -46 -77 0
-147 74 0
-147 41 0
-147 -11 0
-147 35 0
-147 6 0
-147 -46 0
-147 -67 0
-147 44 0
-147 -42 0
-147 85 0
147 -74 -41 11 -35 -6 46 67 -44 42 -85 0
-148 -100 0
-148 -7 0
-148 93 0
-148 -87 0
-148 -68 0
-148 -50 0
-148 2 0
-148 79 0
-148 65 0
-148 -97 0
148 100 7 -93 87 68 50 -2 -79 -65 97 0
-149 -10 0
-149 53 0
-149 55 0
-149 -34 0
-149 -58 0
-149 73 0
-149 77 0
-149 -15 0
-149 63 0
-149 30 0
149 10 -53 -55 34 58 -73 -77 15 -63 -30 0
-150 81 0
-150 -33 0
-150 84 0
-150 -76 0
-150 -59 0
-150 65 0
-150 56 0
-150 32 0
-150 2 0
-150 71 0
150 -81 33 -84 76 59 -65 -56 -32 -2 -71 0
141 142 143 144 145 146 147 148 149 150 0
-151 -53 0
-151 17 0
-151 21 0
-151 -6 0
-151 1 0
-151 19 0
-151 -89 0
-151 22 0
-151 47 0
-151 -12 0
151 53 -17 -21 6 -1 -19 89 -22 -47 12 0
-152 -95 0
-152 -83 0
-152 -82 0
-152 59 0
-152 48 0
-152 90 0
-152 -50 0
-152 -18 0
-152 43 0
-152 -92 0
152 95 83 82 -59 -48 -90 50 18 -43 92 0
-153 -86 0
-153 78 0
-153 89 0
-153 88 0
-153 -49 0
-153 8 0
-153 -99 0
-153 -94 0
-153 -79 0
-153 -4 0
153 86 -78 -89 -88 49 -8 99 94 79 4 0
-154 -28 0
-154 -79 0
-154 -84 0
-154 10 0
-154 -26 0
-154 95 0
-154 -93 0
-154 -33 0
-154 -67 0
-154 -94 0
154 28 79 84 -10 26 -95 93 33 67 94 0
-155 -11 0
-155 26 0
-155 21 0
-155 60 0
-155 17 0
-155 -64 0
-155 88 0
-155 -6 0
-155 -95 0
-155 -31 0
155 11 -26 -21 -60 -17 64 -88 6 95 31 0
-156 -76 0
-156 -73 0
-156 59 0
-156 -26 0
-156 -5 0
-156 -90 0
-156 -21 0
-156 -46 0
-156 -41 0
-156 -51 0
156 76 73 -59 26 5 90 21 46 41 51 0
-157 -84 0
-157 -34 0
-157 94 0
-157 -66 0
-157 51 0
-157 -59 0
-157 -14 0
-157 -82 0
-157 31 0
-157 -63 0
157 84 34 -94 66 -51 59 14 82 -31 63 0
-158 -40 0
-158 -74 0
-158 -58 0
-158 -39 0
-158 -62 0
-158 41 0
-158 -66 0
-158 -55 0
-158 -95 0
-158 43 0
158 40 74 58 39 62 -41 66 55 95 -43 0
-159 -38 0
-159 43 0
-159 -56 0
-159 -44 0
-159 21 0
-159 1 0
-159 -29 0
-159 -25 0
-159 -94 0
-159 31 0
159 38 -43 56 44 -21 -1 29 25 94 -31 0
-160 14 0
-160 8 0
-160 90 0
-160 91 0
-160 -75 0
-160 25 0
-160 85 0
-160 46 0
-160 66 0
-160 40 0
160 -14 -8 -90 -91 75 -25 -85 -46 -66 -40 0
151 152 153 154 155 156 157 158 159 160 0
-161 -9 0
-161 -25 0
-161 8 0
-161 -86 0
-161 -54 0
-161 -33 0
-161 48 0
-161 -56 0
-161 -32 0
-161 75 0
161 9 25 -8 86 54 33 -48 56 32 -75 0
-162 28 0
-162 -46 0
-162 41 0
-162 -98 0
-162 34 0
-162 -35 0
-162 5 0
-162 -78 0
-162 -42 0
-162 89 0
162 -28 46 -41 98 -34 35 -5 78 42 -89 0
-163 -36 0
-163 -96 0
-163 17 0
-163 83 0
-163 -89 0
-163 46 0
-163 -98 0
-163 -12 0
-163 -22 0
-163 -77 0
163 36 96 -17 -83 89 -46 98 12 22 77 0
-164 22 0
-164 75 0
-164 92 0
-164 96 0
-164 89 0
-164 87 0
-164 -54 0
-164 -4 0
-164 -40 0
-164 -94 0
164 -22 -75 -92 -96 -89 -87 54 4 40 94 0
-165 22 0
-165 -76 0
-165 -39 0
-165 75 0
-165 49 0
-165 84 0
-165 38 0
-165 85 0
-165 -61 0
-165 -99 0
165 -22 76 39 -75 -49 -84 -38 -85 61 99 0
-166 -53 0
-166 12 0
-166 50 0
-166 82 0
-166 -29 0
-166 93 0
-166 -92 0
-166 36 0
-166 -38 0
-166 43 0
166 53 -12 -50 -82 29 -93 92 -36 38 -43 0
-167 -45 0
-167 -26 0
-167 57 0
-167 2 0
-167 -64 0
-167 19 0
-167 -69 0
-167 44 0
-167 -55 0
-167 -34 0
167 45 26 -57 -2 64 -19 69 -44 55 34 0
-168 -8 0
-168 -36 0
-168 74 0
-168 -24 0
-168 81 0
-168 -29 0
-168 -58 0
-168 -4 0
-168 17 0
-168 -68 0
168 8 36 -74 24 -81 29 58 4 -17 68 0
-169 -78 0
-169 -19 0
-169 -71 0
-169 43 0
-169 -22 0
-169 -52 0
-169 -89 0
-169 95 0
-169 60 0
-169 -38 0
169 78 19 71 -43 22 52 89 -95 -60 38 0
-170 -10 0
-170 -47 0
-170 -77 0
-170 -90 0
-170 -36 0
-170 -9 0
-170 27 0
-170 -75 0
-170 26 0
-170 22 0
170 10 47 77 90 36 9 -27 75 -26 -22 0
161 162 163 164 165 166 167 168 169 170 0
-171 75 0
-171 -10 0
-171 37 0
-171 -71 0
-171 -11 0
-171 -93 0
-171 -36 0
-171 -69 0
-171 81 0
-171 -9 0
171 -75 10 -37 71 11 93 36 69 -81 9 0
-172 -15 0
-172 69 0
-172 87 0
-172 74 0
-172 -57 0
-172 51 0
-172 -67 0
-172 56 0
-172 80 0
-172 12 0
172 15 -69 -87 -74 57 -51 67 -56 -80 -12 0
-173 -85 0
-173 -10 0
-173 -78 0
-173 -72 0
-173 -94 0
-173 77 0
-173 42 0
-173 -30 0
-173 -41 0
-173 20 0
173 85 10 78 72 94 -77 -42 30 41 -20 0
-174 -3 0
-174 84 0
-174 -26 0
-174 31 0
-174 93 0
-174 97 0
-174 -19 0
-174 -74 0
-174 -4 0
-174 77 0
174 3 -84 26 -31 -93 -97 19 74 4 -77 0
-175 89 0
-175 -77 0
-175 49 0
-175 -76 0
-175 97 0
-175 -50 0
-175 -45 0
-175 -96 0
-175 -33 0
-175 -44 0
175 -89 77 -49 76 -97 50 45 96 33 44 0
-176 -99 0
-176 -26 0
-176 74 0
-176 -52 0
-176 -96 0
-176 94 0
-176 -53 0
-176 -40 0
-176 -68 0
-176 -77 0
176 99 26 -74 52 96 -94 53 40 68 77 0
-177 56 0
-177 94 0
-177 16 0
-177 -36 0
-177 -15 0
-177 30 0
-177 -40 0
-177 -8 0
-177 -33 0
-177 93 0
177 -56 -94 -16 36 15 -30 40 8 33 -93 0
-178 27 0
-178 -8 0
-178 26 0
-178 83 0
-178 -15 0
-178 60 0
-178 -64 0
-178 -37 0
-178 4 0
-178 -22 0
178 -27 8 -26 -83 15 -60 64 37 -4 22 0
-179 -72 0
-179 -83 0
-179 78 0
-179 -1 0
-179 68 0
-179 -89 0
-179 49 0
-179 -88 0
-179 -33 0
-179 -53 0
179 72 83 -78 1 -68 89 -49 88 33 53 0
-180 -46 0
-180 49 0
-180 40 0
-180 82 0
-180 -65 0
-180 12 0
-180 41 0
-180 56 0
-180 78 0
-180 71 0
180 46 -49 -40 -82 65 -12 -41 -56 -78 -71 0
171 172 173 174 175 176 177 178 179 180 0
-181 -77 0
-181 100 0
-181 2 0
-181 -61 0
-181 -6 0
-181 -68 0
-181 -35 0
-181 72 0
-181 -39 0
-181 -70 0
181 77 -100 -2 61 6 68 35 -72 39 70 0
-182 75 0
-182 61 0
-182 8 0
-182 -4 0
-182 9 0
-182 -93 0
-182 94 0
-182 -99 0
-182 56 0
-182 -44 0
182 -75 -61 -8 4 -9 93 -94 99 -56 44 0
-183 82 0
-183 77 0
-183 -52 0
-183 -36 0
-183 63 0
-183 -53 0
-183 -27 0
-183 -93 0
-183 -49 0
-183 -67 0
183 -82 -77 52 36 -63 53 27 93 49 67 0
-184 -51 0
-184 -72 0
-184 6 0
-184 91 0
-184 -54 0
-184 -90 0
-184 14 0
-184 -32 0
-184 36 0
-184 92 0
184 51 72 -6 -91 54 90 -14 32 -36 -92 0
-185 44 0
-185 -38 0
-185 -93 0
-185 45 0
-185 72 0
-185 90 0
-185 74 0
-185 -73 0
-185 56 0
-185 27 0
185 -44 38 93 -45 -72 -90 -74 73 -56 -27 0
-186 -50 0
-186 -51 0
-186 -77 0
-186 9 0
-186 -54 0
-186 83 0
-186 -93 0
-186 -98 0
-186 -34 0
-186 35 0
186 50 51 77 -9 54 -83 93 98 34 -35 0
-187 36 0
-187 -33 0
-187 4 0
-187 -81 0
-187 21 0
-187 40 0
-187 38 0
-187 -75 0
-187 -59 0
-187 -15 0
187 -36 33 -4 81 -21 -40 -38 75 59 15 0
-188 66 0
-188 -7 0
-188 46 0
-188 49 0
-188 -3 0
-188 -79 0
-188 98 0
-188 36 0
-188 50 0
-188 -38 0
188 -66 7 -46 -49 3 79 -98 -36 -50 38 0
-189 -12 0
-189 -93 0
-189 63 0
-189 -30 0
-189 77 0
-189 91 0
-189 -11 0
-189 84 0
-189 -76 0
-189 62 0
189 12 93 -63 30 -77 -91 11 -84 76 -62 0
-190 -10 0
-190 -3 0
-190 -21 0
-190 -6 0
-190 -4 0
-190 -62 0
-190 -41 0
-190 -91 0
-190 77 0
-190 -80 0
190 10 3 21 6 4 62 41 91 -77 80 0
181 182 183 184 185 186 187 188 189 190 0
-191 -47 0
-191 72 0
-191 52 0
-191 70 0
-191 16 0
-191 -56 0
-191 28 0
-191 -23 0
-191 -12 0
-191 68 0
191 47 -72 -52 -70 -16 56 -28 23 12 -68 0
-192 21 0
-192 -62 0
-192 -41 0
-192 52 0
-192 7 0
-192 25 0
-192 -68 0
-192 -47 0
-192 -66 0
-192 -51 0
192 -21 62 41 -52 -7 -25 68 47 66 51 0
-193 -39 0
-193 72 0
-193 -34 0
-193 -82 0
-193 46 0
-193 90 0
-193 -4 0
-193 3 0
-193 -100 0
-193 -8 0
193 39 -72 34 82 -46 -90 4 -3 100 8 0
-194 -27 0
-194 -90 0
-194 65 0
-194 61 0
-194 58 0
-194 88 0
-194 -10 0
-194 -89 0
-194 22 0
-194 14 0
194 27 90 -65 -61 -58 -88 10 89 -22 -14 0
-195 2 0
-195 -43 0
-195 -98 0
-195 -34 0
-195 -17 0
-195 -61 0
-195 93 0
-195 30 0
-195 -57 0
-195 -88 0
195 -2 43 98 34 17 61 -93 -30 57 88 0
-196 -31 0
-196 38 0
-196 -70 0
-196 -22 0
-196 -93 0
-196 -72 0
-196 35 0
-196 -76 0
-196 -56 0
-196 -59 0
196 31 -38 70 22 93 72 -35 76 56 59 0
-197 -61 0
-197 54 0
-197 -79 0
-197 -74 0
-197 68 0
-197 28 0
-197 -39 0
-197 -99 0
-197 59 0
-197 -53 0
197 61 -54 79 74 -68 -28 39 99 -59 53 0
-198 -92 0
-198 7 0
-198 -65 0
-198 73 0
-198 -14 0
-198 94 0
-198 -47 0
-198 -16 0
-198 10 0
-198 25 0
198 92 -7 65 -73 14 -94 47 16 -10 -25 0
-199 -39 0
-199 -78 0
-199 -64 0
-199 -69 0
-199 23 0
-199 91 0
-199 -13 0
-199 34 0
-199 -21 0
-199 -58 0
199 39 78 64 69 -23 -91 13 -34 21 58 0
-200 -36 0
-200 -7 0
-200 -11 0
-200 -19 0
-200 -90 0
-200 -86 0
-200 33 0
-200 -38 0
-200 -64 0
-200 -43 0
200 36 7 11 19 90 86 -33 38 64 43 0
191 192 193 194 195 196 197 198 199 200 0
